c This is the enc1_simplified file generate by sty
p cnf 44 120
 -1 2 0
 -2 1 0
 1 3 0
 -3 -1 0
 -1 -4 5 0
 -5 1 0
 -5 4 0
 1 -4 6 0
 -6 -1 0
 -6 4 0
 -1 4 7 0
 -7 1 0
 -7 -4 0
 1 4 8 0
 -8 -1 0
 -8 -4 0
 -9 10 0
 -10 9 0
 9 11 0
 -11 -9 0
 -9 -12 13 0
 -13 9 0
 -13 12 0
 9 -12 14 0
 -14 -9 0
 -14 12 0
 -9 12 15 0
 -15 9 0
 -15 -12 0
 9 12 16 0
 -16 -9 0
 -16 -12 0
 -9 -17 18 0
 -18 9 0
 -18 17 0
 9 -17 19 0
 -19 -9 0
 -19 17 0
 -9 17 20 0
 -20 9 0
 -20 -17 0
 9 17 21 0
 -21 -9 0
 -21 -17 0
 -4 -12 -22 23 0
 -23 4 0
 -23 12 0
 -23 22 0
 -4 12 -22 24 0
 -24 4 0
 -24 -12 0
 -24 22 0
 4 -12 -22 25 0
 -25 -4 0
 -25 12 0
 -25 22 0
 4 12 -22 26 0
 -26 -4 0
 -26 -12 0
 -26 22 0
 -4 -12 22 27 0
 -27 4 0
 -27 12 0
 -27 -22 0
 -4 12 22 28 0
 -28 4 0
 -28 -12 0
 -28 -22 0
 4 -12 22 29 0
 -29 -4 0
 -29 12 0
 -29 -22 0
 4 12 22 30 0
 -30 -4 0
 -30 -12 0
 -30 -22 0
 -22 -31 32 0
 -32 22 0
 -32 31 0
 22 -31 33 0
 -33 -22 0
 -33 31 0
 -22 31 34 0
 -34 22 0
 -34 -31 0
 22 31 35 0
 -35 -22 0
 -35 -31 0
 -22 -17 -36 37 0
 -37 22 0
 -37 17 0
 -37 36 0
 -22 17 -36 38 0
 -38 22 0
 -38 -17 0
 -38 36 0
 22 -17 -36 39 0
 -39 -22 0
 -39 17 0
 -39 36 0
 22 17 -36 40 0
 -40 -22 0
 -40 -17 0
 -40 36 0
 -22 -17 36 41 0
 -41 22 0
 -41 17 0
 -41 -36 0
 -22 17 36 42 0
 -42 22 0
 -42 -17 0
 -42 -36 0
 22 -17 36 43 0
 -43 -22 0
 -43 17 0
 -43 -36 0
 22 17 36 44 0
 -44 -22 0
 -44 -17 0
 -44 -36 0
